(set-logic QF_S)
(declare-fun var0 () String)
(declare-fun var1 () String)
(declare-fun var2 () String)
(declare-fun var3 () String)
(declare-fun var4 () Int)
(declare-fun var5 () Int)
(assert (< (str.to.int var0) (str.len "5UGcSQ:")))
(assert (< (str.len var1) (str.to.int var2)))
(assert (<= (str.indexof var3 var3 var4) (str.indexof var0 var2 var5)))
(assert (str.in.re var3 re.allchar))
(check-sat)